--------------------------------------------------
s SATISFIABLE
benchmarks_SAT/INST_25x25/100/inst25x25_100_0.cnf : 125 ms.
--------------------------------------------------
s SATISFIABLE
benchmarks_SAT/INST_25x25/100/inst25x25_100_10.cnf : 130 ms.
--------------------------------------------------
s SATISFIABLE
benchmarks_SAT/INST_25x25/100/inst25x25_100_11.cnf : 130 ms.
--------------------------------------------------
s SATISFIABLE
benchmarks_SAT/INST_25x25/100/inst25x25_100_12.cnf : 132 ms.
--------------------------------------------------
s SATISFIABLE
benchmarks_SAT/INST_25x25/100/inst25x25_100_13.cnf : 132 ms.
--------------------------------------------------
s SATISFIABLE
benchmarks_SAT/INST_25x25/100/inst25x25_100_14.cnf : 132 ms.
--------------------------------------------------
s SATISFIABLE
benchmarks_SAT/INST_25x25/100/inst25x25_100_15.cnf : 131 ms.
--------------------------------------------------
s SATISFIABLE
benchmarks_SAT/INST_25x25/100/inst25x25_100_16.cnf : 133 ms.
--------------------------------------------------
s SATISFIABLE
benchmarks_SAT/INST_25x25/100/inst25x25_100_17.cnf : 135 ms.
--------------------------------------------------
s SATISFIABLE
benchmarks_SAT/INST_25x25/100/inst25x25_100_18.cnf : 133 ms.
--------------------------------------------------
s SATISFIABLE
benchmarks_SAT/INST_25x25/100/inst25x25_100_19.cnf : 138 ms.
--------------------------------------------------
s SATISFIABLE
benchmarks_SAT/INST_25x25/100/inst25x25_100_1.cnf : 134 ms.
--------------------------------------------------
s SATISFIABLE
benchmarks_SAT/INST_25x25/100/inst25x25_100_20.cnf : 136 ms.
--------------------------------------------------
s SATISFIABLE
benchmarks_SAT/INST_25x25/100/inst25x25_100_21.cnf : 137 ms.
--------------------------------------------------
s SATISFIABLE
benchmarks_SAT/INST_25x25/100/inst25x25_100_22.cnf : 137 ms.
--------------------------------------------------
s SATISFIABLE
benchmarks_SAT/INST_25x25/100/inst25x25_100_23.cnf : 138 ms.
--------------------------------------------------
s SATISFIABLE
benchmarks_SAT/INST_25x25/100/inst25x25_100_24.cnf : 132 ms.
--------------------------------------------------
s SATISFIABLE
benchmarks_SAT/INST_25x25/100/inst25x25_100_25.cnf : 133 ms.
--------------------------------------------------
s SATISFIABLE
benchmarks_SAT/INST_25x25/100/inst25x25_100_26.cnf : 139 ms.
--------------------------------------------------
s SATISFIABLE
benchmarks_SAT/INST_25x25/100/inst25x25_100_27.cnf : 129 ms.
--------------------------------------------------
s SATISFIABLE
benchmarks_SAT/INST_25x25/100/inst25x25_100_28.cnf : 136 ms.
--------------------------------------------------
s SATISFIABLE
benchmarks_SAT/INST_25x25/100/inst25x25_100_29.cnf : 138 ms.
--------------------------------------------------
s SATISFIABLE
benchmarks_SAT/INST_25x25/100/inst25x25_100_2.cnf : 131 ms.
--------------------------------------------------
s SATISFIABLE
benchmarks_SAT/INST_25x25/100/inst25x25_100_30.cnf : 135 ms.
--------------------------------------------------
s SATISFIABLE
benchmarks_SAT/INST_25x25/100/inst25x25_100_31.cnf : 129 ms.
--------------------------------------------------
s SATISFIABLE
benchmarks_SAT/INST_25x25/100/inst25x25_100_32.cnf : 129 ms.
--------------------------------------------------
s SATISFIABLE
benchmarks_SAT/INST_25x25/100/inst25x25_100_33.cnf : 126 ms.
--------------------------------------------------
s SATISFIABLE
benchmarks_SAT/INST_25x25/100/inst25x25_100_34.cnf : 132 ms.
--------------------------------------------------
s SATISFIABLE
benchmarks_SAT/INST_25x25/100/inst25x25_100_35.cnf : 130 ms.
--------------------------------------------------
s SATISFIABLE
benchmarks_SAT/INST_25x25/100/inst25x25_100_36.cnf : 133 ms.
--------------------------------------------------
s SATISFIABLE
benchmarks_SAT/INST_25x25/100/inst25x25_100_37.cnf : 122 ms.
--------------------------------------------------
s SATISFIABLE
benchmarks_SAT/INST_25x25/100/inst25x25_100_38.cnf : 121 ms.
--------------------------------------------------
s SATISFIABLE
benchmarks_SAT/INST_25x25/100/inst25x25_100_39.cnf : 131 ms.
--------------------------------------------------
s SATISFIABLE
benchmarks_SAT/INST_25x25/100/inst25x25_100_3.cnf : 134 ms.
--------------------------------------------------
s SATISFIABLE
benchmarks_SAT/INST_25x25/100/inst25x25_100_40.cnf : 138 ms.
--------------------------------------------------
s SATISFIABLE
benchmarks_SAT/INST_25x25/100/inst25x25_100_41.cnf : 133 ms.
--------------------------------------------------
s SATISFIABLE
benchmarks_SAT/INST_25x25/100/inst25x25_100_42.cnf : 128 ms.
--------------------------------------------------
s SATISFIABLE
benchmarks_SAT/INST_25x25/100/inst25x25_100_43.cnf : 127 ms.
--------------------------------------------------
s SATISFIABLE
benchmarks_SAT/INST_25x25/100/inst25x25_100_44.cnf : 129 ms.
--------------------------------------------------
s SATISFIABLE
benchmarks_SAT/INST_25x25/100/inst25x25_100_45.cnf : 135 ms.
--------------------------------------------------
s SATISFIABLE
benchmarks_SAT/INST_25x25/100/inst25x25_100_46.cnf : 132 ms.
--------------------------------------------------
s SATISFIABLE
benchmarks_SAT/INST_25x25/100/inst25x25_100_47.cnf : 133 ms.
--------------------------------------------------
s SATISFIABLE
benchmarks_SAT/INST_25x25/100/inst25x25_100_48.cnf : 128 ms.
--------------------------------------------------
s SATISFIABLE
benchmarks_SAT/INST_25x25/100/inst25x25_100_49.cnf : 129 ms.
--------------------------------------------------
s SATISFIABLE
benchmarks_SAT/INST_25x25/100/inst25x25_100_4.cnf : 135 ms.
--------------------------------------------------
s SATISFIABLE
benchmarks_SAT/INST_25x25/100/inst25x25_100_50.cnf : 134 ms.
--------------------------------------------------
s SATISFIABLE
benchmarks_SAT/INST_25x25/100/inst25x25_100_51.cnf : 124 ms.
--------------------------------------------------
s SATISFIABLE
benchmarks_SAT/INST_25x25/100/inst25x25_100_52.cnf : 132 ms.
--------------------------------------------------
s SATISFIABLE
benchmarks_SAT/INST_25x25/100/inst25x25_100_53.cnf : 132 ms.
--------------------------------------------------
s SATISFIABLE
benchmarks_SAT/INST_25x25/100/inst25x25_100_54.cnf : 126 ms.
--------------------------------------------------
s SATISFIABLE
benchmarks_SAT/INST_25x25/100/inst25x25_100_55.cnf : 128 ms.
--------------------------------------------------
s SATISFIABLE
benchmarks_SAT/INST_25x25/100/inst25x25_100_56.cnf : 133 ms.
--------------------------------------------------
s SATISFIABLE
benchmarks_SAT/INST_25x25/100/inst25x25_100_57.cnf : 133 ms.
--------------------------------------------------
s SATISFIABLE
benchmarks_SAT/INST_25x25/100/inst25x25_100_58.cnf : 133 ms.
--------------------------------------------------
s SATISFIABLE
benchmarks_SAT/INST_25x25/100/inst25x25_100_59.cnf : 123 ms.
--------------------------------------------------
s SATISFIABLE
benchmarks_SAT/INST_25x25/100/inst25x25_100_5.cnf : 124 ms.
--------------------------------------------------
s SATISFIABLE
benchmarks_SAT/INST_25x25/100/inst25x25_100_60.cnf : 132 ms.
--------------------------------------------------
s SATISFIABLE
benchmarks_SAT/INST_25x25/100/inst25x25_100_61.cnf : 129 ms.
--------------------------------------------------
s SATISFIABLE
benchmarks_SAT/INST_25x25/100/inst25x25_100_62.cnf : 131 ms.
--------------------------------------------------
s SATISFIABLE
benchmarks_SAT/INST_25x25/100/inst25x25_100_63.cnf : 123 ms.
--------------------------------------------------
s SATISFIABLE
benchmarks_SAT/INST_25x25/100/inst25x25_100_64.cnf : 128 ms.
--------------------------------------------------
s SATISFIABLE
benchmarks_SAT/INST_25x25/100/inst25x25_100_65.cnf : 130 ms.
--------------------------------------------------
s SATISFIABLE
benchmarks_SAT/INST_25x25/100/inst25x25_100_66.cnf : 132 ms.
--------------------------------------------------
s SATISFIABLE
benchmarks_SAT/INST_25x25/100/inst25x25_100_67.cnf : 128 ms.
--------------------------------------------------
s SATISFIABLE
benchmarks_SAT/INST_25x25/100/inst25x25_100_68.cnf : 134 ms.
--------------------------------------------------
s SATISFIABLE
benchmarks_SAT/INST_25x25/100/inst25x25_100_69.cnf : 124 ms.
--------------------------------------------------
s SATISFIABLE
benchmarks_SAT/INST_25x25/100/inst25x25_100_6.cnf : 127 ms.
--------------------------------------------------
s SATISFIABLE
benchmarks_SAT/INST_25x25/100/inst25x25_100_70.cnf : 127 ms.
--------------------------------------------------
s SATISFIABLE
benchmarks_SAT/INST_25x25/100/inst25x25_100_71.cnf : 125 ms.
--------------------------------------------------
s SATISFIABLE
benchmarks_SAT/INST_25x25/100/inst25x25_100_72.cnf : 125 ms.
--------------------------------------------------
s SATISFIABLE
benchmarks_SAT/INST_25x25/100/inst25x25_100_73.cnf : 130 ms.
--------------------------------------------------
s SATISFIABLE
benchmarks_SAT/INST_25x25/100/inst25x25_100_74.cnf : 130 ms.
--------------------------------------------------
s SATISFIABLE
benchmarks_SAT/INST_25x25/100/inst25x25_100_75.cnf : 127 ms.
--------------------------------------------------
s SATISFIABLE
benchmarks_SAT/INST_25x25/100/inst25x25_100_76.cnf : 132 ms.
--------------------------------------------------
s SATISFIABLE
benchmarks_SAT/INST_25x25/100/inst25x25_100_77.cnf : 127 ms.
--------------------------------------------------
s SATISFIABLE
benchmarks_SAT/INST_25x25/100/inst25x25_100_78.cnf : 126 ms.
--------------------------------------------------
s SATISFIABLE
benchmarks_SAT/INST_25x25/100/inst25x25_100_79.cnf : 124 ms.
--------------------------------------------------
s SATISFIABLE
benchmarks_SAT/INST_25x25/100/inst25x25_100_7.cnf : 125 ms.
--------------------------------------------------
s SATISFIABLE
benchmarks_SAT/INST_25x25/100/inst25x25_100_80.cnf : 128 ms.
--------------------------------------------------
s SATISFIABLE
benchmarks_SAT/INST_25x25/100/inst25x25_100_81.cnf : 128 ms.
--------------------------------------------------
s SATISFIABLE
benchmarks_SAT/INST_25x25/100/inst25x25_100_82.cnf : 126 ms.
--------------------------------------------------
s SATISFIABLE
benchmarks_SAT/INST_25x25/100/inst25x25_100_83.cnf : 124 ms.
--------------------------------------------------
s SATISFIABLE
benchmarks_SAT/INST_25x25/100/inst25x25_100_84.cnf : 130 ms.
--------------------------------------------------
s SATISFIABLE
benchmarks_SAT/INST_25x25/100/inst25x25_100_85.cnf : 123 ms.
--------------------------------------------------
s SATISFIABLE
benchmarks_SAT/INST_25x25/100/inst25x25_100_86.cnf : 124 ms.
--------------------------------------------------
s SATISFIABLE
benchmarks_SAT/INST_25x25/100/inst25x25_100_87.cnf : 124 ms.
--------------------------------------------------
s SATISFIABLE
benchmarks_SAT/INST_25x25/100/inst25x25_100_88.cnf : 121 ms.
--------------------------------------------------
s SATISFIABLE
benchmarks_SAT/INST_25x25/100/inst25x25_100_89.cnf : 124 ms.
--------------------------------------------------
s SATISFIABLE
benchmarks_SAT/INST_25x25/100/inst25x25_100_8.cnf : 138 ms.
--------------------------------------------------
s SATISFIABLE
benchmarks_SAT/INST_25x25/100/inst25x25_100_90.cnf : 132 ms.
--------------------------------------------------
s SATISFIABLE
benchmarks_SAT/INST_25x25/100/inst25x25_100_91.cnf : 130 ms.
--------------------------------------------------
s SATISFIABLE
benchmarks_SAT/INST_25x25/100/inst25x25_100_92.cnf : 122 ms.
--------------------------------------------------
s SATISFIABLE
benchmarks_SAT/INST_25x25/100/inst25x25_100_93.cnf : 127 ms.
--------------------------------------------------
s SATISFIABLE
benchmarks_SAT/INST_25x25/100/inst25x25_100_94.cnf : 127 ms.
--------------------------------------------------
s SATISFIABLE
benchmarks_SAT/INST_25x25/100/inst25x25_100_95.cnf : 127 ms.
--------------------------------------------------
s SATISFIABLE
benchmarks_SAT/INST_25x25/100/inst25x25_100_96.cnf : 124 ms.
--------------------------------------------------
s SATISFIABLE
benchmarks_SAT/INST_25x25/100/inst25x25_100_97.cnf : 130 ms.
--------------------------------------------------
s SATISFIABLE
benchmarks_SAT/INST_25x25/100/inst25x25_100_98.cnf : 130 ms.
--------------------------------------------------
s SATISFIABLE
benchmarks_SAT/INST_25x25/100/inst25x25_100_99.cnf : 131 ms.
--------------------------------------------------
s SATISFIABLE
benchmarks_SAT/INST_25x25/100/inst25x25_100_9.cnf : 128 ms.
